50

96 23 194
93 5 372
86 11 188
86 21 384
85 22 369
83 23 283
80 7 304
80 1 304
80 21 459
79 24 470
77 17 250
68 12 252
67 17 185
64 12 425
64 15 246
63 2 273
60 17 341
57 11 410
55 14 466
54 3 294
54 1 355
54 7 466
54 2 449
52 9 429
52 11 484
52 12 246
51 14 383
44 6 428
43 8 373
41 5 294
41 3 304
39 1 191
39 11 473
39 9 275
38 9 462
36 2 341
36 2 192
35 11 397
34 11 395
34 1 252
31 7 430
31 4 230
29 4 449
29 7 266
28 5 255
24 6 310
23 5 450
22 2 206
22 5 208
20 6 493
